\* column_knapsack_problem *\
Minimize
knapsack: 30 col_0 + 24 col_1 + 27 col_100 + 28 col_101 + 27 col_102
 + 26 col_103 + 29 col_104 + 28 col_105 + 27 col_106 + 30 col_107 + 24 col_108
 + 23 col_109 + 23 col_110 + 31 col_111 + 27 col_112 + 21 col_113 + 31 col_114
 + 27 col_115 + 27 col_116 + 30 col_117 + 28 col_118 + 17 col_119 + 23 col_120
 + 24 col_121 + 23 col_122 + 23 col_123 + 23 col_124 + 26 col_125 + 26 col_126
 + 26 col_127 + 28 col_128 + 21 col_129 + 21 col_13 + 27 col_130 + 26 col_131
 + 28 col_132 + 31 col_133 + 25 col_134 + 28 col_135 + 22 col_136 + 22 col_137
 + 29 col_138 + 13 col_139 + 21 col_14 + 29 col_140 + 26 col_142 + 24 col_143
 + 27 col_145 + 23 col_146 + 28 col_147 + 30 col_150 + 26 col_151 + 27 col_152
 + 32 col_153 + 24 col_154 + 25 col_155 + 26 col_156 + 28 col_157 + 22 col_158
 + 25 col_159 + 24 col_160 + 26 col_161 + 27 col_162 + 25 col_163 + 23 col_164
 + 20 col_165 + 28 col_166 + 22 col_167 + 24 col_168 + 23 col_169 + 35 col_17
 + 28 col_170 + 29 col_171 + 22 col_172 + 19 col_173 + 26 col_174 + 29 col_175
 + 25 col_176 + 21 col_177 + 26 col_178 + 26 col_179 + 19 col_180 + 23 col_181
 + 27 col_182 + 24 col_183 + 21 col_184 + 24 col_185 + 22 col_186 + 31 col_187
 + 22 col_188 + 30 col_189 + 16 col_19 + 27 col_190 + 23 col_191 + 20 col_192
 + 27 col_193 + 29 col_194 + 22 col_195 + 24 col_196 + 28 col_197 + 27 col_198
 + 24 col_199 + 29 col_2 + 31 col_20 + 26 col_200 + 22 col_201 + 25 col_202
 + 25 col_203 + 30 col_204 + 33 col_205 + 29 col_206 + 26 col_207 + 25 col_209
 + 13 col_21 + 28 col_210 + 28 col_211 + 23 col_212 + 23 col_213 + 26 col_214
 + 21 col_215 + 17 col_217 + 33 col_218 + 23 col_219 + 31 col_22 + 23 col_220
 + 27 col_221 + 21 col_222 + 20 col_223 + 26 col_224 + 25 col_225 + 26 col_226
 + 27 col_227 + 23 col_228 + 31 col_229 + 12 col_23 + 25 col_230 + 25 col_231
 + 27 col_232 + 26 col_233 + 22 col_234 + 24 col_235 + 25 col_236 + 30 col_237
 + 20 col_238 + 21 col_239 + 22 col_24 + 24 col_240 + 21 col_241 + 30 col_242
 + 19 col_243 + 27 col_244 + 29 col_245 + 20 col_246 + 28 col_247 + 31 col_249
 + 20 col_25 + 21 col_250 + 26 col_251 + 30 col_252 + 22 col_253 + 33 col_254
 + 25 col_255 + 23 col_256 + 29 col_258 + 27 col_259 + 22 col_26 + 29 col_260
 + 18 col_261 + 30 col_262 + 23 col_263 + 23 col_264 + 28 col_265 + 28 col_266
 + 25 col_267 + 25 col_268 + 22 col_269 + 13 col_27 + 26 col_270 + 29 col_271
 + 29 col_272 + 22 col_273 + 27 col_274 + 29 col_275 + 28 col_276 + 17 col_277
 + 26 col_278 + 27 col_279 + 18 col_28 + 22 col_281 + 25 col_282 + 28 col_283
 + 28 col_284 + 33 col_285 + 14 col_286 + 20 col_287 + 20 col_288 + 23 col_289
 + 21 col_290 + 28 col_291 + 18 col_292 + 30 col_293 + 21 col_294 + 28 col_295
 + 32 col_296 + 27 col_297 + 21 col_298 + 23 col_299 + 25 col_3 + 24 col_30
 + 29 col_300 + 25 col_302 + 23 col_303 + 18 col_304 + 21 col_305 + 23 col_309
 + 18 col_31 + 33 col_313 + 26 col_314 + 33 col_315 + 29 col_316 + 26 col_317
 + 28 col_319 + 15 col_32 + 18 col_323 + 16 col_324 + 30 col_325 + 13 col_326
 + 28 col_327 + 27 col_328 + 33 col_329 + 30 col_33 + 25 col_331 + 19 col_332
 + 29 col_333 + 28 col_335 + 25 col_336 + 18 col_337 + 27 col_338 + 24 col_339
 + 22 col_340 + 18 col_341 + 21 col_342 + 20 col_343 + 27 col_344 + 18 col_345
 + 25 col_346 + 22 col_347 + 29 col_348 + 27 col_349 + 26 col_35 + 20 col_350
 + 19 col_351 + 24 col_352 + 16 col_353 + 25 col_354 + 25 col_355 + 21 col_356
 + 28 col_357 + 20 col_358 + 26 col_359 + 22 col_36 + 15 col_361 + 11 col_362
 + 12 col_363 + 28 col_365 + 25 col_366 + 26 col_367 + 10 col_368 + 16 col_369
 + 25 col_37 + 27 col_370 + 25 col_371 + 25 col_372 + 19 col_374 + 27 col_376
 + 15 col_377 + 25 col_378 + 21 col_38 + 20 col_380 + 17 col_381 + 27 col_382
 + 16 col_383 + 18 col_384 + 26 col_385 + 28 col_386 + 23 col_387 + 28 col_388
 + 23 col_389 + 22 col_39 + 24 col_390 + 28 col_391 + 26 col_392 + 28 col_393
 + 21 col_394 + 23 col_395 + 25 col_396 + 32 col_397 + 23 col_399 + 30 col_4
 + 28 col_40 + 23 col_400 + 30 col_401 + 15 col_404 + 20 col_405 + 33 col_406
 + 14 col_407 + 24 col_408 + 31 col_409 + 18 col_41 + 28 col_410 + 29 col_411
 + 28 col_413 + 22 col_415 + 23 col_416 + 22 col_417 + 22 col_419 + 25 col_42
 + 25 col_420 + 30 col_421 + 27 col_422 + 28 col_424 + 28 col_425 + 26 col_426
 + 26 col_427 + 30 col_428 + 25 col_429 + 25 col_43 + 24 col_431 + 33 col_432
 + 25 col_433 + 31 col_434 + 24 col_436 + 28 col_438 + 23 col_44 + 33 col_440
 + 26 col_444 + 28 col_45 + 29 col_451 + 30 col_454 + 23 col_455 + 29 col_457
 + 25 col_459 + 26 col_46 + 21 col_461 + 26 col_465 + 16 col_47 + 28 col_48
 + 24 col_49 + 28 col_51 + 23 col_52 + 27 col_53 + 23 col_54 + 27 col_55
 + 25 col_56 + 21 col_57 + 29 col_58 + 23 col_59 + 25 col_6 + 26 col_60
 + 24 col_61 + 20 col_62 + 24 col_63 + 28 col_64 + 28 col_65 + 32 col_66
 + 27 col_67 + 27 col_68 + 30 col_69 + 27 col_7 + 24 col_70 + 26 col_71
 + 25 col_72 + 26 col_73 + 21 col_74 + 24 col_75 + 22 col_76 + 28 col_77
 + 20 col_78 + 18 col_79 + 28 col_8 + 20 col_80 + 22 col_81 + 26 col_82
 + 23 col_83 + 18 col_84 + 26 col_85 + 27 col_86 + 28 col_87 + 26 col_88
 + 27 col_89 + 25 col_9 + 27 col_90 + 30 col_91 + 18 col_92 + 20 col_93
 + 24 col_94 + 23 col_95 + 26 col_96 + 29 col_97 + 21 col_98 + 23 col_99
Subject To
sensitivity: 5 col_0 + 11 col_1 + 8 col_100 + 7 col_101 + 8 col_102
 + 9 col_103 + 6 col_104 + 7 col_105 + 8 col_106 + 5 col_107 + 11 col_108
 + 12 col_109 + 12 col_110 + 4 col_111 + 8 col_112 + 14 col_113 + 4 col_114
 + 8 col_115 + 8 col_116 + 5 col_117 + 7 col_118 + 18 col_119 + 12 col_120
 + 11 col_121 + 12 col_122 + 12 col_123 + 12 col_124 + 9 col_125 + 9 col_126
 + 9 col_127 + 7 col_128 + 14 col_129 + 14 col_13 + 8 col_130 + 9 col_131
 + 7 col_132 + 4 col_133 + 10 col_134 + 7 col_135 + 13 col_136 + 13 col_137
 + 6 col_138 + 22 col_139 + 14 col_14 + 6 col_140 + 9 col_142 + 11 col_143
 + 8 col_145 + 12 col_146 + 7 col_147 + 5 col_150 + 9 col_151 + 8 col_152
 + 3 col_153 + 11 col_154 + 10 col_155 + 9 col_156 + 7 col_157 + 13 col_158
 + 10 col_159 + 11 col_160 + 9 col_161 + 8 col_162 + 10 col_163 + 12 col_164
 + 15 col_165 + 7 col_166 + 13 col_167 + 11 col_168 + 12 col_169 + 7 col_170
 + 6 col_171 + 13 col_172 + 16 col_173 + 9 col_174 + 6 col_175 + 10 col_176
 + 14 col_177 + 9 col_178 + 9 col_179 + 16 col_180 + 12 col_181 + 8 col_182
 + 11 col_183 + 14 col_184 + 11 col_185 + 13 col_186 + 4 col_187 + 13 col_188
 + 5 col_189 + 19 col_19 + 8 col_190 + 12 col_191 + 15 col_192 + 8 col_193
 + 6 col_194 + 13 col_195 + 11 col_196 + 7 col_197 + 8 col_198 + 11 col_199
 + 6 col_2 + 4 col_20 + 9 col_200 + 13 col_201 + 10 col_202 + 10 col_203
 + 5 col_204 + 2 col_205 + 6 col_206 + 9 col_207 + 10 col_209 + 22 col_21
 + 7 col_210 + 7 col_211 + 12 col_212 + 12 col_213 + 9 col_214 + 14 col_215
 + 18 col_217 + 2 col_218 + 12 col_219 + 4 col_22 + 12 col_220 + 8 col_221
 + 14 col_222 + 15 col_223 + 9 col_224 + 10 col_225 + 9 col_226 + 8 col_227
 + 12 col_228 + 4 col_229 + 23 col_23 + 10 col_230 + 10 col_231 + 8 col_232
 + 9 col_233 + 13 col_234 + 11 col_235 + 10 col_236 + 5 col_237 + 15 col_238
 + 14 col_239 + 13 col_24 + 11 col_240 + 14 col_241 + 5 col_242 + 16 col_243
 + 8 col_244 + 6 col_245 + 15 col_246 + 7 col_247 + 4 col_249 + 15 col_25
 + 14 col_250 + 9 col_251 + 5 col_252 + 13 col_253 + 2 col_254 + 10 col_255
 + 12 col_256 + 6 col_258 + 8 col_259 + 13 col_26 + 6 col_260 + 17 col_261
 + 5 col_262 + 12 col_263 + 12 col_264 + 7 col_265 + 7 col_266 + 10 col_267
 + 10 col_268 + 13 col_269 + 22 col_27 + 9 col_270 + 6 col_271 + 6 col_272
 + 13 col_273 + 8 col_274 + 6 col_275 + 7 col_276 + 18 col_277 + 9 col_278
 + 8 col_279 + 17 col_28 + 13 col_281 + 10 col_282 + 7 col_283 + 7 col_284
 + 2 col_285 + 21 col_286 + 15 col_287 + 15 col_288 + 12 col_289 + 14 col_290
 + 7 col_291 + 17 col_292 + 5 col_293 + 14 col_294 + 7 col_295 + 3 col_296
 + 8 col_297 + 14 col_298 + 12 col_299 + 10 col_3 + 11 col_30 + 6 col_300
 + 10 col_302 + 12 col_303 + 17 col_304 + 14 col_305 + 12 col_309 + 17 col_31
 + 2 col_313 + 9 col_314 + 2 col_315 + 6 col_316 + 9 col_317 + 7 col_319
 + 20 col_32 + 17 col_323 + 19 col_324 + 5 col_325 + 22 col_326 + 7 col_327
 + 8 col_328 + 2 col_329 + 5 col_33 + 10 col_331 + 16 col_332 + 6 col_333
 + 7 col_335 + 10 col_336 + 17 col_337 + 8 col_338 + 11 col_339 + 13 col_340
 + 17 col_341 + 14 col_342 + 15 col_343 + 8 col_344 + 17 col_345 + 10 col_346
 + 13 col_347 + 6 col_348 + 8 col_349 + 9 col_35 + 15 col_350 + 16 col_351
 + 11 col_352 + 19 col_353 + 10 col_354 + 10 col_355 + 14 col_356 + 7 col_357
 + 15 col_358 + 9 col_359 + 13 col_36 + 20 col_361 + 24 col_362 + 23 col_363
 + 7 col_365 + 10 col_366 + 9 col_367 + 25 col_368 + 19 col_369 + 10 col_37
 + 8 col_370 + 10 col_371 + 10 col_372 + 16 col_374 + 8 col_376 + 20 col_377
 + 10 col_378 + 14 col_38 + 15 col_380 + 18 col_381 + 8 col_382 + 19 col_383
 + 17 col_384 + 9 col_385 + 7 col_386 + 12 col_387 + 7 col_388 + 12 col_389
 + 13 col_39 + 11 col_390 + 7 col_391 + 9 col_392 + 7 col_393 + 14 col_394
 + 12 col_395 + 10 col_396 + 3 col_397 + 12 col_399 + 5 col_4 + 7 col_40
 + 12 col_400 + 5 col_401 + 20 col_404 + 15 col_405 + 2 col_406 + 21 col_407
 + 11 col_408 + 4 col_409 + 17 col_41 + 7 col_410 + 6 col_411 + 7 col_413
 + 13 col_415 + 12 col_416 + 13 col_417 + 13 col_419 + 10 col_42 + 10 col_420
 + 5 col_421 + 8 col_422 + 7 col_424 + 7 col_425 + 9 col_426 + 9 col_427
 + 5 col_428 + 10 col_429 + 10 col_43 + 11 col_431 + 2 col_432 + 10 col_433
 + 4 col_434 + 11 col_436 + 7 col_438 + 12 col_44 + 2 col_440 + 9 col_444
 + 7 col_45 + 6 col_451 + 5 col_454 + 12 col_455 + 6 col_457 + 10 col_459
 + 9 col_46 + 14 col_461 + 9 col_465 + 19 col_47 + 7 col_48 + 11 col_49
 + 7 col_51 + 12 col_52 + 8 col_53 + 12 col_54 + 8 col_55 + 10 col_56
 + 14 col_57 + 6 col_58 + 12 col_59 + 10 col_6 + 9 col_60 + 11 col_61
 + 15 col_62 + 11 col_63 + 7 col_64 + 7 col_65 + 3 col_66 + 8 col_67
 + 8 col_68 + 5 col_69 + 8 col_7 + 11 col_70 + 9 col_71 + 10 col_72 + 9 col_73
 + 14 col_74 + 11 col_75 + 13 col_76 + 7 col_77 + 15 col_78 + 17 col_79
 + 7 col_8 + 15 col_80 + 13 col_81 + 9 col_82 + 12 col_83 + 17 col_84
 + 9 col_85 + 8 col_86 + 7 col_87 + 9 col_88 + 8 col_89 + 10 col_9 + 8 col_90
 + 5 col_91 + 17 col_92 + 15 col_93 + 11 col_94 + 12 col_95 + 9 col_96
 + 6 col_97 + 14 col_98 + 12 col_99 >= 412.9
Bounds
 col_0 <= 1
 col_1 <= 1
 col_100 <= 1
 col_101 <= 1
 col_102 <= 1
 col_103 <= 1
 col_104 <= 1
 col_105 <= 1
 col_106 <= 1
 col_107 <= 1
 col_108 <= 1
 col_109 <= 1
 col_110 <= 1
 col_111 <= 1
 col_112 <= 1
 col_113 <= 1
 col_114 <= 1
 col_115 <= 1
 col_116 <= 1
 col_117 <= 1
 col_118 <= 1
 col_119 <= 1
 col_120 <= 1
 col_121 <= 1
 col_122 <= 1
 col_123 <= 1
 col_124 <= 1
 col_125 <= 1
 col_126 <= 1
 col_127 <= 1
 col_128 <= 1
 col_129 <= 1
 col_13 <= 1
 col_130 <= 1
 col_131 <= 1
 col_132 <= 1
 col_133 <= 1
 col_134 <= 1
 col_135 <= 1
 col_136 <= 1
 col_137 <= 1
 col_138 <= 1
 col_139 <= 1
 col_14 <= 1
 col_140 <= 1
 col_142 <= 1
 col_143 <= 1
 col_145 <= 1
 col_146 <= 1
 col_147 <= 1
 col_150 <= 1
 col_151 <= 1
 col_152 <= 1
 col_153 <= 1
 col_154 <= 1
 col_155 <= 1
 col_156 <= 1
 col_157 <= 1
 col_158 <= 1
 col_159 <= 1
 col_160 <= 1
 col_161 <= 1
 col_162 <= 1
 col_163 <= 1
 col_164 <= 1
 col_165 <= 1
 col_166 <= 1
 col_167 <= 1
 col_168 <= 1
 col_169 <= 1
 col_17 <= 1
 col_170 <= 1
 col_171 <= 1
 col_172 <= 1
 col_173 <= 1
 col_174 <= 1
 col_175 <= 1
 col_176 <= 1
 col_177 <= 1
 col_178 <= 1
 col_179 <= 1
 col_180 <= 1
 col_181 <= 1
 col_182 <= 1
 col_183 <= 1
 col_184 <= 1
 col_185 <= 1
 col_186 <= 1
 col_187 <= 1
 col_188 <= 1
 col_189 <= 1
 col_19 <= 1
 col_190 <= 1
 col_191 <= 1
 col_192 <= 1
 col_193 <= 1
 col_194 <= 1
 col_195 <= 1
 col_196 <= 1
 col_197 <= 1
 col_198 <= 1
 col_199 <= 1
 col_2 <= 1
 col_20 <= 1
 col_200 <= 1
 col_201 <= 1
 col_202 <= 1
 col_203 <= 1
 col_204 <= 1
 col_205 <= 1
 col_206 <= 1
 col_207 <= 1
 col_209 <= 1
 col_21 <= 1
 col_210 <= 1
 col_211 <= 1
 col_212 <= 1
 col_213 <= 1
 col_214 <= 1
 col_215 <= 1
 col_217 <= 1
 col_218 <= 1
 col_219 <= 1
 col_22 <= 1
 col_220 <= 1
 col_221 <= 1
 col_222 <= 1
 col_223 <= 1
 col_224 <= 1
 col_225 <= 1
 col_226 <= 1
 col_227 <= 1
 col_228 <= 1
 col_229 <= 1
 col_23 <= 1
 col_230 <= 1
 col_231 <= 1
 col_232 <= 1
 col_233 <= 1
 col_234 <= 1
 col_235 <= 1
 col_236 <= 1
 col_237 <= 1
 col_238 <= 1
 col_239 <= 1
 col_24 <= 1
 col_240 <= 1
 col_241 <= 1
 col_242 <= 1
 col_243 <= 1
 col_244 <= 1
 col_245 <= 1
 col_246 <= 1
 col_247 <= 1
 col_249 <= 1
 col_25 <= 1
 col_250 <= 1
 col_251 <= 1
 col_252 <= 1
 col_253 <= 1
 col_254 <= 1
 col_255 <= 1
 col_256 <= 1
 col_258 <= 1
 col_259 <= 1
 col_26 <= 1
 col_260 <= 1
 col_261 <= 1
 col_262 <= 1
 col_263 <= 1
 col_264 <= 1
 col_265 <= 1
 col_266 <= 1
 col_267 <= 1
 col_268 <= 1
 col_269 <= 1
 col_27 <= 1
 col_270 <= 1
 col_271 <= 1
 col_272 <= 1
 col_273 <= 1
 col_274 <= 1
 col_275 <= 1
 col_276 <= 1
 col_277 <= 1
 col_278 <= 1
 col_279 <= 1
 col_28 <= 1
 col_281 <= 1
 col_282 <= 1
 col_283 <= 1
 col_284 <= 1
 col_285 <= 1
 col_286 <= 1
 col_287 <= 1
 col_288 <= 1
 col_289 <= 1
 col_290 <= 1
 col_291 <= 1
 col_292 <= 1
 col_293 <= 1
 col_294 <= 1
 col_295 <= 1
 col_296 <= 1
 col_297 <= 1
 col_298 <= 1
 col_299 <= 1
 col_3 <= 1
 col_30 <= 1
 col_300 <= 1
 col_302 <= 1
 col_303 <= 1
 col_304 <= 1
 col_305 <= 1
 col_309 <= 1
 col_31 <= 1
 col_313 <= 1
 col_314 <= 1
 col_315 <= 1
 col_316 <= 1
 col_317 <= 1
 col_319 <= 1
 col_32 <= 1
 col_323 <= 1
 col_324 <= 1
 col_325 <= 1
 col_326 <= 1
 col_327 <= 1
 col_328 <= 1
 col_329 <= 1
 col_33 <= 1
 col_331 <= 1
 col_332 <= 1
 col_333 <= 1
 col_335 <= 1
 col_336 <= 1
 col_337 <= 1
 col_338 <= 1
 col_339 <= 1
 col_340 <= 1
 col_341 <= 1
 col_342 <= 1
 col_343 <= 1
 col_344 <= 1
 col_345 <= 1
 col_346 <= 1
 col_347 <= 1
 col_348 <= 1
 col_349 <= 1
 col_35 <= 1
 col_350 <= 1
 col_351 <= 1
 col_352 <= 1
 col_353 <= 1
 col_354 <= 1
 col_355 <= 1
 col_356 <= 1
 col_357 <= 1
 col_358 <= 1
 col_359 <= 1
 col_36 <= 1
 col_361 <= 1
 col_362 <= 1
 col_363 <= 1
 col_365 <= 1
 col_366 <= 1
 col_367 <= 1
 col_368 <= 1
 col_369 <= 1
 col_37 <= 1
 col_370 <= 1
 col_371 <= 1
 col_372 <= 1
 col_374 <= 1
 col_376 <= 1
 col_377 <= 1
 col_378 <= 1
 col_38 <= 1
 col_380 <= 1
 col_381 <= 1
 col_382 <= 1
 col_383 <= 1
 col_384 <= 1
 col_385 <= 1
 col_386 <= 1
 col_387 <= 1
 col_388 <= 1
 col_389 <= 1
 col_39 <= 1
 col_390 <= 1
 col_391 <= 1
 col_392 <= 1
 col_393 <= 1
 col_394 <= 1
 col_395 <= 1
 col_396 <= 1
 col_397 <= 1
 col_399 <= 1
 col_4 <= 1
 col_40 <= 1
 col_400 <= 1
 col_401 <= 1
 col_404 <= 1
 col_405 <= 1
 col_406 <= 1
 col_407 <= 1
 col_408 <= 1
 col_409 <= 1
 col_41 <= 1
 col_410 <= 1
 col_411 <= 1
 col_413 <= 1
 col_415 <= 1
 col_416 <= 1
 col_417 <= 1
 col_419 <= 1
 col_42 <= 1
 col_420 <= 1
 col_421 <= 1
 col_422 <= 1
 col_424 <= 1
 col_425 <= 1
 col_426 <= 1
 col_427 <= 1
 col_428 <= 1
 col_429 <= 1
 col_43 <= 1
 col_431 <= 1
 col_432 <= 1
 col_433 <= 1
 col_434 <= 1
 col_436 <= 1
 col_438 <= 1
 col_44 <= 1
 col_440 <= 1
 col_444 <= 1
 col_45 <= 1
 col_451 <= 1
 col_454 <= 1
 col_455 <= 1
 col_457 <= 1
 col_459 <= 1
 col_46 <= 1
 col_461 <= 1
 col_465 <= 1
 col_47 <= 1
 col_48 <= 1
 col_49 <= 1
 col_51 <= 1
 col_52 <= 1
 col_53 <= 1
 col_54 <= 1
 col_55 <= 1
 col_56 <= 1
 col_57 <= 1
 col_58 <= 1
 col_59 <= 1
 col_6 <= 1
 col_60 <= 1
 col_61 <= 1
 col_62 <= 1
 col_63 <= 1
 col_64 <= 1
 col_65 <= 1
 col_66 <= 1
 col_67 <= 1
 col_68 <= 1
 col_69 <= 1
 col_7 <= 1
 col_70 <= 1
 col_71 <= 1
 col_72 <= 1
 col_73 <= 1
 col_74 <= 1
 col_75 <= 1
 col_76 <= 1
 col_77 <= 1
 col_78 <= 1
 col_79 <= 1
 col_8 <= 1
 col_80 <= 1
 col_81 <= 1
 col_82 <= 1
 col_83 <= 1
 col_84 <= 1
 col_85 <= 1
 col_86 <= 1
 col_87 <= 1
 col_88 <= 1
 col_89 <= 1
 col_9 <= 1
 col_90 <= 1
 col_91 <= 1
 col_92 <= 1
 col_93 <= 1
 col_94 <= 1
 col_95 <= 1
 col_96 <= 1
 col_97 <= 1
 col_98 <= 1
 col_99 <= 1
End
